Function: get_partitions took 1.4066696166992188e-05 seconds
Function: map_flows_partitions took 1.3828277587890625e-05 seconds
Building model with:
21 devices, 1 partitions and 20 flows
Using license file /home/anup/gurobi.lic
Academic license - for non-commercial use only
Function: MIP.add_frac_mem_var took 0.0003113746643066406 seconds
Function: MIP.add_coverage_constraints took 0.00044989585876464844 seconds
Function: MIP.add_accuracy_constraints took 0.00043129920959472656 seconds
Function: MIP.add_capacity_constraints took 0.0020601749420166016 seconds
Changed value of parameter TimeLimit to 120.0
   Prev: inf  Min: 0.0  Max: inf  Default: inf
--------------------------------------------------
Starting model update
Model update took: 9.751319885253906e-05 s
--------------------------------------------------
Starting model optimize
Gurobi Optimizer version 9.0.0 build v9.0.0rc2 (linux64)
Optimize a model with 84 rows, 87 columns and 208 nonzeros
Model fingerprint: 0x61722e07
Model has 2 general constraints
Variable types: 87 continuous, 0 integer (0 binary)
Coefficient statistics:
  Matrix range     [1e+00, 5e+00]
  Objective range  [1e+00, 1e+00]
  Bounds range     [1e+00, 3e+04]
  RHS range        [1e+00, 1e+00]

---------------------------------------------------------------------------
Multi-objectives: starting optimization with 4 objectives ... 
---------------------------------------------------------------------------

Multi-objectives: applying initial presolve ...
---------------------------------------------------------------------------

Presolve removed 43 rows and 23 columns
Presolve time: 0.00s
Presolved: 41 rows and 64 columns
---------------------------------------------------------------------------

Multi-objectives: optimize objective 1 (tot_mem_CPU) ...
---------------------------------------------------------------------------

Presolve removed 0 rows and 2 columns
Presolve time: 0.00s
Presolved: 41 rows, 62 columns, 140 nonzeros
Presolved model has 20 SOS constraint(s)
Variable types: 42 continuous, 20 integer (20 binary)

Root relaxation: objective 0.000000e+00, 22 iterations, 0.00 seconds

    Nodes    |    Current Node    |     Objective Bounds      |     Work
 Expl Unexpl |  Obj  Depth IntInf | Incumbent    BestBd   Gap | It/Node Time

*    0     0               0       0.0000000    0.00000  0.00%     -    0s

Explored 0 nodes (22 simplex iterations) in 0.00 seconds
Thread count was 8 (of 8 available processors)

Solution count 1: 0 

Optimal solution found (tolerance 1.00e-04)
Best objective 0.000000000000e+00, best bound 0.000000000000e+00, gap 0.0000%
---------------------------------------------------------------------------

Multi-objectives: optimize objective 2 (CPU_mem_load) ...
---------------------------------------------------------------------------


Loaded user MIP start with objective 0


Explored 0 nodes (0 simplex iterations) in 0.00 seconds
Thread count was 1 (of 8 available processors)

Solution count 1: 0 

Optimal solution found (tolerance 1.00e-04)
Best objective 0.000000000000e+00, best bound 0.000000000000e+00, gap 0.0000%
---------------------------------------------------------------------------

Multi-objectives: optimize objective 3 (tot_mem_P4) ...
---------------------------------------------------------------------------


Loaded user MIP start with objective 50.9766

Presolve removed 2 rows and 3 columns
Presolve time: 0.00s
Presolved: 41 rows, 61 columns, 120 nonzeros
Presolved model has 20 SOS constraint(s)
Variable types: 41 continuous, 20 integer (20 binary)

Root relaxation: objective 5.097655e+01, 22 iterations, 0.00 seconds

    Nodes    |    Current Node    |     Objective Bounds      |     Work
 Expl Unexpl |  Obj  Depth IntInf | Incumbent    BestBd   Gap | It/Node Time

*    0     0               0      50.9765525   50.97655  0.00%     -    0s

Explored 0 nodes (22 simplex iterations) in 0.00 seconds
Thread count was 8 (of 8 available processors)

Solution count 2: 50.9766 50.9766 

Optimal solution found (tolerance 1.00e-04)
Best objective 5.097655249900e+01, best bound 5.097655249900e+01, gap 0.0000%
---------------------------------------------------------------------------

Multi-objectives: optimize objective 4 (P4_mem_load) ...
---------------------------------------------------------------------------


Loaded user MIP start with objective 2.54883

Presolve removed 2 rows and 3 columns
Presolve time: 0.00s
Presolved: 42 rows, 61 columns, 140 nonzeros
Presolved model has 20 SOS constraint(s)
Variable types: 41 continuous, 20 integer (20 binary)

Explored 1 nodes (0 simplex iterations) in 0.01 seconds
Thread count was 8 (of 8 available processors)

Solution count 1: 2.54883 

Optimal solution found (tolerance 1.00e-04)
Best objective 2.548827624950e+00, best bound 2.548827624950e+00, gap 0.0000%

---------------------------------------------------------------------------
Multi-objectives: solved in 0.01 seconds, solution count 2

Model optimize took: 0.0058252811431884766 seconds
--------------------------------------------------

Solution quality statistics for model UnivmonGreedy :
  Maximum violation:
    Bound       : 0.00000000e+00
    Constraint  : 0.00000000e+00
    Integrality : 0.00000000e+00

Sketch (0) (cm: eps0: 0.00625, del0: 0.05, min_mem: 1.69921875)
Par: 1, Rows: 3
(0.500,18)    (0.500,3)    (0.500,8)    (0.500,14)    (0.500,19)    (0.500,4)    (0.500,9)    (0.500,15)    (0.000,20)    (0.500,5)    (0.500,10)    (0.500,0)    (0.500,6)    (0.500,11)    (0.500,16)    (0.500,1)    (0.500,7)    (0.500,12)    (0.500,17)    (0.500,2)    (0.500,13)    
Total frac: 10.000

Device (0) P4_0:
Rows total: 1.499999705717701
Mem total: 2.54882762495

Device (1) P4_1:
Rows total: 1.499999705717701
Mem total: 2.54882762495

Device (2) P4_2:
Rows total: 1.499999705717701
Mem total: 2.54882762495

Device (3) P4_3:
Rows total: 1.499999705717701
Mem total: 2.54882762495

Device (4) P4_4:
Rows total: 1.499999705717701
Mem total: 2.54882762495

Device (5) P4_5:
Rows total: 1.499999705717701
Mem total: 2.54882762495

Device (6) P4_6:
Rows total: 1.499999705717701
Mem total: 2.54882762495

Device (7) P4_7:
Rows total: 1.499999705717701
Mem total: 2.54882762495

Device (8) P4_8:
Rows total: 1.499999705717701
Mem total: 2.54882762495

Device (9) P4_9:
Rows total: 1.499999705717701
Mem total: 2.54882762495

Device (10) P4_10:
Rows total: 1.499999705717701
Mem total: 2.54882762495

Device (11) P4_11:
Rows total: 1.499999705717701
Mem total: 2.54882762495

Device (12) P4_12:
Rows total: 1.499999705717701
Mem total: 2.54882762495

Device (13) P4_13:
Rows total: 1.499999705717701
Mem total: 2.54882762495

Device (14) P4_14:
Rows total: 1.499999705717701
Mem total: 2.54882762495

Device (15) P4_15:
Rows total: 1.499999705717701
Mem total: 2.54882762495

Device (16) P4_16:
Rows total: 1.499999705717701
Mem total: 2.54882762495

Device (17) P4_17:
Rows total: 1.499999705717701
Mem total: 2.54882762495

Device (18) P4_18:
Rows total: 1.499999705717701
Mem total: 2.54882762495

Device (19) P4_19:
Rows total: 1.499999705717701
Mem total: 2.54882762495

Device (20) CPU_1:
Rows total: 5.885645977011494e-07
Mem total: 1.0001e-06
--------------------------------------------------
Changed value of parameter NonConvex to 2
   Prev: -1  Min: -1  Max: 2  Default: -1

Throughput: 97.99999999999999 Mpps, ns per packet: 10.204081632653063
Resources: 78.56201003898407
Used Cores: 6.999999999999973, Total CPUS: 1, Switch Memory: 50.976552499

Sketch (0) (cm: eps0: 0.00625, del0: 0.05, min_mem: 1.69921875)
Par: 1, Rows: 3
(0.500,18)    (0.500,3)    (0.500,8)    (0.500,14)    (0.500,19)    (0.500,4)    (0.500,9)    (0.500,15)    (0.000,20)    (0.500,5)    (0.500,10)    (0.500,0)    (0.500,6)    (0.500,11)    (0.500,16)    (0.500,1)    (0.500,7)    (0.500,12)    (0.500,17)    (0.500,2)    (0.500,13)    
Total frac: 10.000

Device (0) P4_0:
Rows total: 1.499999705717701
Mem total: 2.54882762495
Throughput: 148.0

Device (1) P4_1:
Rows total: 1.499999705717701
Mem total: 2.54882762495
Throughput: 148.0

Device (2) P4_2:
Rows total: 1.499999705717701
Mem total: 2.54882762495
Throughput: 148.0

Device (3) P4_3:
Rows total: 1.499999705717701
Mem total: 2.54882762495
Throughput: 148.0

Device (4) P4_4:
Rows total: 1.499999705717701
Mem total: 2.54882762495
Throughput: 148.0

Device (5) P4_5:
Rows total: 1.499999705717701
Mem total: 2.54882762495
Throughput: 148.0

Device (6) P4_6:
Rows total: 1.499999705717701
Mem total: 2.54882762495
Throughput: 148.0

Device (7) P4_7:
Rows total: 1.499999705717701
Mem total: 2.54882762495
Throughput: 148.0

Device (8) P4_8:
Rows total: 1.499999705717701
Mem total: 2.54882762495
Throughput: 148.0

Device (9) P4_9:
Rows total: 1.499999705717701
Mem total: 2.54882762495
Throughput: 148.0

Device (10) P4_10:
Rows total: 1.499999705717701
Mem total: 2.54882762495
Throughput: 148.0

Device (11) P4_11:
Rows total: 1.499999705717701
Mem total: 2.54882762495
Throughput: 148.0

Device (12) P4_12:
Rows total: 1.499999705717701
Mem total: 2.54882762495
Throughput: 148.0

Device (13) P4_13:
Rows total: 1.499999705717701
Mem total: 2.54882762495
Throughput: 148.0

Device (14) P4_14:
Rows total: 1.499999705717701
Mem total: 2.54882762495
Throughput: 148.0

Device (15) P4_15:
Rows total: 1.499999705717701
Mem total: 2.54882762495
Throughput: 148.0

Device (16) P4_16:
Rows total: 1.499999705717701
Mem total: 2.54882762495
Throughput: 148.0

Device (17) P4_17:
Rows total: 1.499999705717701
Mem total: 2.54882762495
Throughput: 148.0

Device (18) P4_18:
Rows total: 1.499999705717701
Mem total: 2.54882762495
Throughput: 148.0

Device (19) P4_19:
Rows total: 1.499999705717701
Mem total: 2.54882762495
Throughput: 148.0

Device (20) CPU_1:
cores_sketch: 0.0, cores_dpdk: 6.999999999999973
Rows total: 0
Mem total: 0.0
Throughput: 97.99999999999999
--------------------------------------------------
Function: MIP.solve took 0.030333518981933594 seconds
Function: solve took 0.030686378479003906 seconds
